InboundTrucks  = 8;
OutboundTrucks = 5;
ReleaseTime    = [0, 1, 0, 3, 2, 5, 4, 6];
UnloadTime     = [3, 2, 4, 2, 5, 1, 3, 4];
LoadTime       = [2, 3, 2, 4, 3];
TransferTime   = [| 1,2,1,3,2 | 2,1,3,1,2 | 1,1,2,2,1 | 3,2,1,2,3 | 2,3,2,1,2 | 1,2,3,2,1 | 2,1,2,3,2 | 3,2,1,1,3 |];
